/*********************************************
 * OPL 12.7.0.0 Data
 * Author: Dimitri
 * Creation Date: 07/02/2017 at 20:20:12
 *********************************************/
NumberOfDaysInWeek = 5; //SEG TER QUA QUI SEX

DayDuration = 8;  
/* Horarios de um dia
1 -> 7 as 9
2 -> 9 as 11
3 -> 11 as 13
4 -> 13 as 15
5 -> 15 as 17
6 -> 17 as 19
7 -> 19 as 21
8 -> 21 as 22
*/ 

 Teacher = { 
			"ADICINEIA APARECIDA", 
			"ADMILSON RIBAMAR" , 
		    "ALBERTO COSTA", 
			"ANDRÉ BRITO" , 
			"ANTONIO MONTEIRO",				
			"BEATRIZ TRINCHAO", 
			"BRENO PIVA", 
			"BRUNO PRADO",
			"CARLOS ESTOMBELO", 
			"DANIEL DANTAS", 
			"DEBORA MARIA", 
			"EDILAYNE SALGUEIRO",
			"EDWARD DAVID",
			"GILTON JOSÉ",
		    "GIOVANNY FERNANDO",
		    "HENDRIK TEIXEIRA" , 
		    "HENRIQUE SCHNEIDER", 
		    "JANIO COUTINHO", 
		    "KALIL ARAUJO" , 
		    "KENIA KODEL",
			"LEILA MACIEL", 
			"LEONARDO NOGUEIRA MATOS" ,
			"LUIZ BRUNELLI", 
			"MARCO TULIO CHELLA" , 
			"MARIA AUGUSTA NUNES",
			"MICHEL DOS SANTOS" , 
			"RENE PEREIRA DE GUSMAO" , 
			"RICARDO SALGUEIRO", 
			"ROGERIO PATRICIO" , 
			"TARCISIO DA ROCHA",	
}; 
			
Discipline = {
 //Ciencia da Computacao
	"Arquitetura de Computadores I",
	"Banco de Dados",
	"Compiladores",
	"Circuitos Digitais II",
	"Estrutura de Dados I",
	"Estrutura de Dados II",
	"Desenvolvimento de Software I",
	"Desenvolvimento de Software II",
	"Desenvolvimento de Software III",
	"Circuitos Digitais I",
	"Fundamentos da Computação",
	"Lógica para Computação",
	"Laboratório de Circuitos Digitais I",
	"Laboratório de Circuitos Digitais II",
	"Linguagens formais e computabilidade",
	"Grafos",
	"Inteligência Artificial",
	"Informática, Ética e sociedade",
	"Informática Educativa",
	"Interface Humano - Computador",
	"Introdução a Ciência da computação",
	"Métodos e Técnicas de Pesquisas",
	"Paradigmas de Programação",
	"Progamação Imperativa",
	"Progamação Declarativa",
	"Progamação Orientada a Objetos",
	"Projeto e Analise de Algoritmos",
	"Processamento de Imagens e Computação Gráfica",
	"Redes de Computadores I",
	"Redes de Computadores II",
	"Progamação para Web",
	"Sistemas Operacionais",
	"Sistemas Distribuídos",
	
//Engenharia da Comutacao
	"Algoritmos",
	"MICROCOMPUTADORES"	
};


//habilidades de cada professor
TeacherSkills = {
	<"ADICINEIA APARECIDA", {}  >,
	<"ADMILSON RIBAMAR", {"Arquitetura de Computadores I", "Progamação Imperativa"} >,
	<"ALBERTO COSTA", {"Paradigmas de Progamação" ,"Estrutura de Dados I" , "Introdução a Ciência da computação"} >,
	<"ANDRÉ BRITO", {"Banco de Dados" ,"Progamação Imperativa"} >,
	<"ANTONIO MONTEIRO", {"Progamação para Web" ,"Progamação Imperativa"} >,
	<"BEATRIZ TRINCHAO", {"Compiladores" ,"Progamação Orientada a Objetos" , "Processamento de Imagens e Computação Gráfica"} >,
	<"BRENO PIVA", {"Linguagens formais e computabilidade" ,"Grafos"} >,
	<"BRUNO PRADO", {"Projeto e Analise de Algoritmos" ,"Arquitetura de Computadores I"} >,	
	<"CARLOS ESTOMBELO", {"Inteligência Artificial"} >,
	<"DANIEL DANTAS", {"Processamento de Imagens e Computação Gráfica" ,"Grafos"} >,
	<"DEBORA MARIA", {"Desenvolvimento de Software III"} >,
	<"EDILAYNE SALGUEIRO", {"Redes de Computadores II"} >,
	<"EDWARD DAVID", {"Laboratório de Circuitos Digitais II" ,"Circuitos Digitais II"} >,	
	<"GILTON JOSÉ", {"Progamação Imperativa" , "Introdução a Ciência da computação"} >,
	<"GIOVANNY FERNANDO", {"Compiladores"} >,	
	<"HENDRIK TEIXEIRA", {"Inteligência Artificial" , "Fundamentos da Computação"} >,
	<"HENRIQUE SCHNEIDER", {"Interface Humano - Computador", "Informática Educativa"} >,
	<"JANIO COUTINHO", {"Banco de Dados" , "Progamação Orientada a Objetos" , "Introdução a Ciência da computação"} >,	
	<"JOSE HENRIQUE", {"Desenvolvimento de Software I" , "Desenvolvimento de Software III" , "Introdução a Ciência da computação"} >,	
	<"KALIL ARAUJO", {"Compiladores" ,"Progamação Imperativa"} >,	
	<"KENIA KODEL", {"Progamação Imperativa"} >,
	<"LEILA MACIEL", {"Grafos" ,"Projeto e Analise de Algoritmos"} >,	
	<"LEONARDO NOGUEIRA MATOS", {"Fundamentos da Computação" ,"Processamento de Imagens e Computação Gráfica"} >,	
	<"LUIZ BRUNELLI", {"Laboratório de Circuitos Digitais I" ,"Circuitos Digitais I"} >,	
	<"MARCO TULIO CHELLA", {"Sistemas Operacionais" ,"Arquitetura de Computadores I"} >,
	<"MARIA AUGUSTA NUNES", {"Métodos e Técnicas de Pesquisas" ,"Inteligência Artificial" , "Lógica para Computação"} >,
	<"MICHEL DOS SANTOS", {"Desenvolvimento de Software II"} >,
	<"RENE PEREIRA DE GUSMAO", {"Sistemas Operacionais"} >,
	<"RICARDO SALGUEIRO", {"Redes de Computadores I"} >,
	<"ROGERIO PATRICIO", {"Progamação Imperativa"} >,
	<"TARCISIO DA ROCHA", {"Sistemas Distribuídos"} >
};

//< teacher , discipline , class start hour , day of class >
TeacherChoices = { 
   <"ANDRÉ BRITO", "Banco de Dados" , 4 , 2>,
   <"KALIL ARAUJO", "Compiladores", 4 , 2>,
   <"HENRIQUE SCHNEIDER", "Informática Educativa", 6 , 1>,
};
                       

//salas e reservas para disciplinas
DedicatedRoomSet = { <"Laboratório de Graduação 04", "Redes de Computadores II">,
                     <"Laboratório de Graduação 05", "Sistemas Distribuídos">,
                     <"Lab Ensino Hardware", "Laboratório de Circuitos Digitais II">,
                     <"Lab Ensino Hardware", "Laboratório de Circuitos Digitais I">,
                     <"Laboratório de Graduação 02", "Inteligencia Artificial">,
                     <"Lab Geral", "Progamação Imperativa">,
                     <"Lab Geral", "Progamação Orientada a Objetos">,
                     <"Laboratório de Graduação 02", "Progamação para Web">,
};
                   
//salas e suas capacidades de alunos
Room = {<"DID 6 - 100", 70>,
		<"DID 5 - 012", 50>,
		<"DID 5 - 06", 50 >,  
		<"DID 5 - 111", 70>,
		<"DID 5 - 101", 70>,
		<"DID 4 - 101", 70>, 
		<"DID 4 - 102", 70>, 
		<"DID 4 - 103", 50>, 
		<"DID 4 - 06", 30>, 
		<"DID 4 - 08", 50>, 
		<"DID 4 - 12", 30>,
		<"DID 3 - 101", 50>, 
		<"DID 3 - 102", 50>, 
		<"DID 3 - 113", 50> ,
		<"DID 2 - 02", 30>, 
		<"DID 2 - 07", 30>,
		<"DID 1 - 09", 30>,
		<"DID 1 - 10", 50>,			
		<"Laboratório de Graduação 02", 30>,
		<"Laboratório de Graduação 03", 15>,
		<"Laboratório de Graduação 04", 40>,
		<"Laboratório de Graduação 05", 24>,
		<"Laboratório de Graduação 06", 06>,
		<"Lab Ensino Hardware", 21> ,
		<"Laboratório de Pesquisa em Hardware 02", 16> ,
		
		//dcomp antigo
		
};

 //<semestre curricular de 1 a 7 , disciplina, quantidade de alunos>
 //Turmas ofertadas. Materias de mesmo semestre nao devem chocar horario
 ClassesBySemester = {
   //<semestre, nomeTurma, disciplina, qtdEstudantes>
   <1, "T01","Progamação Imperativa", 70>,
   <1, "T02","Progamação Imperativa", 70>,
   <1, "T03","Progamação Imperativa", 70>,
   <1, "T01","Fundamentos da Computação", 50>,
   <1, "T01","Métodos e Técnicas de Pesquisas", 50>,
   
   <2, "T01", "Lógica para Computação", 50>,
   <2, "T01", "Progamação Orientada a Objetos", 70>,
   <2, "T02", "Progamação Orientada a Objetos", 70>,
   <2, "T01", "Estrutura de Dados I", 50>,
   <2, "T02", "Estrutura de Dados I", 50>,
   <2, "T01", "Circuitos Digitais I", 50>,
   <2, "T01", "Laboratório de Circuitos Digitais I", 25>,
   <2, "T02", "Laboratório de Circuitos Digitais I", 25>,
   
   <3, "T01", "Progamação Declarativa",  50>,
   <3, "T01", "Arquitetura de Computadores I", 50>,
   <3, "T02", "Arquitetura de Computadores I", 50>,
   <3, "T01", "Estrutura de Dados II", 50>,
   <3  "T01", "Informática, Ética e sociedade", 50>,
   <3, "T01", "Progamação para Web", 50>,
   
   <4,  "T01", "Laboratório de Circuitos Digitais II", 30>,
   <4, 	"T01", "Grafos", 50>,
   <4, 	"T01", "Informática Educativa", 50>,
   <4, 	"T01", "Paradigmas de Programação", 50>,
   <4,  "T01", "Sistemas Operacionais", 50>,
   <4,  "T02", "Sistemas Operacionais", 50>,   
   <4, 	"T01", "Circuitos Digitais II", 30>,
   <4, 	"T01", "Projeto e Analise de Algoritmos", 50>,
   
   <5, 	"T01", "Desenvolvimento de Software I", 50>,
   <5, 	"T02", "Desenvolvimento de Software I", 50>,
   <5, 	"T01", "Linguagens formais e computabilidade", 50>,
   <5,  "T01", "Inteligência Artificial", 50>,
   <5,  "T02", "Inteligência Artificial", 50>,
   <5, 	"T01", "Redes de Computadores I", 50>,
   <5, 	"T02", "Redes de Computadores I", 50>,
   <5, 	"T01", "Banco de Dados", 50>,

   <6, 	"T01", "Compiladores" , 50>,
   <6, 	"T01", "Desenvolvimento de Software II", 50>,
   <6, 	"T01", "Interface Humano - Computador", 50>,
   <6, 	"T02", "Interface Humano - Computador", 50>,
   <6, 	"T01", "Processamento de Imagens e Computação Gráfica", 50>,
   <6, 	"T01", "Redes de Computadores II", 50>,
	
   <7, 	"T01", "Desenvolvimento de Software III", 50>,
   <7,  "T01", "Sistemas Distribuídos", 50>, 
    
   //turmas para outros departamentos
   <0, "T01","Introdução a Ciência da computação", 70>,
   <0, "T02","Introdução a Ciência da computação", 70>,
   <0, "T03","Introdução a Ciência da computação", 70>,
   
 };